(set-logic QF_S)
(declare-fun var0 () String)
(declare-fun var1 () String)
(declare-fun var2 () Bool)
(declare-fun var3 () String)
(declare-fun var4 () Int)
(declare-fun var5 () Int)
(declare-fun var6 () String)
(declare-fun var7 () Int)
(assert (>= (str.len var0) (str.len var1)))
(assert (not var2))
(assert (str.contains (str.substr var3 var4 var5) (str.substr (str.substr var6 var7 139) (str.to.int var3) (str.to.int var6))))
(assert (> (str.len var0) (str.to.int "d&%")))
(check-sat)